NAME: tsp45_15
COMMENT: 45-tsp problem (Padberg/Rinaldi)
TYPE: TSP
DIMENSION: 45
EDGE_WEIGHT_TYPE : EUC_2D
NODE_COORD_SECTION
1 12 28
2 10 39
3 34 15
4 33 23
5 24 9
6 19 39
7 24 11
8 25 23
9 1 38
10 6 19
11 12 9
12 14 30
13 12 19
14 15 38
15 16 29
16 24 17
17 23 13
18 33 35
19 34 9
20 22 21
21 20 30
22 13 8
23 28 19
24 2 37
25 28 39
26 18 12
27 11 3
28 20 32
29 8 10
30 37 21
31 25 9
32 5 32
33 15 1
34 20 27
35 33 31
36 1 36
37 17 10
38 34 9
39 24 5
40 2 11
41 39 26
42 14 39
43 32 34
44 17 5
45 32 4
